
Gurobi 10.0.1 (mac64[arm]) logging started Mon Sep 18 23:07:14 2023

Set parameter LogFile to value "scenario_returns/returns_beta/results/M_j_b_-50/mip_log.txt"
Gurobi Optimizer version 10.0.1 build v10.0.1rc0 (mac64[arm])

CPU model: Apple M1
Thread count: 8 physical cores, 8 logical processors, using up to 8 threads

Optimize a model with 1694 rows, 6293 columns and 24772 nonzeros
Model fingerprint: 0xbe47bec6
Model has 8978 general constraints
Variable types: 1 continuous, 6292 integer (408 binary)
Coefficient statistics:
  Matrix range     [6e-02, 3e+05]
  Objective range  [9e-02, 2e+05]
  Bounds range     [1e+00, 2e+07]
  RHS range        [2e+03, 2e+04]
  GenCon rhs range [1e+00, 1e+00]
  GenCon coe range [1e+00, 1e+00]
Presolve removed 44 rows and 373 columns
Presolve time: 0.07s
Presolved: 1650 rows, 5920 columns, 23693 nonzeros
Presolved model has 4 SOS constraint(s)
Variable types: 0 continuous, 5920 integer (34 binary)

Root relaxation: objective 6.105412e+07, 6624 iterations, 0.16 seconds (0.10 work units)

    Nodes    |    Current Node    |     Objective Bounds      |     Work
 Expl Unexpl |  Obj  Depth IntInf | Incumbent    BestBd   Gap | It/Node Time

     0     0 6.1054e+07    0  215          - 6.1054e+07      -     -    0s
     0     0 6.1151e+07    0  569          - 6.1151e+07      -     -    0s
     0     0 6.2421e+07    0  591          - 6.2421e+07      -     -    0s
H    0     0                    6.542174e+07 6.2421e+07  4.59%     -    0s
     0     0 6.2471e+07    0  384 6.5422e+07 6.2471e+07  4.51%     -    0s
     0     0 6.2501e+07    0  711 6.5422e+07 6.2501e+07  4.46%     -    0s
     0     0 6.2501e+07    0  725 6.5422e+07 6.2501e+07  4.46%     -    0s
     0     0 6.2503e+07    0  729 6.5422e+07 6.2503e+07  4.46%     -    0s
     0     0 6.2568e+07    0  732 6.5422e+07 6.2568e+07  4.36%     -    0s
H    0     0                    6.513830e+07 6.2568e+07  3.95%     -    0s
H    0     0                    6.382660e+07 6.2568e+07  1.97%     -    0s
     0     0 6.2572e+07    0  862 6.3827e+07 6.2572e+07  1.97%     -    0s
     0     0 6.2573e+07    0  877 6.3827e+07 6.2573e+07  1.96%     -    0s
H    0     0                    6.376864e+07 6.2587e+07  1.85%     -    0s
     0     0 6.2587e+07    0  859 6.3769e+07 6.2587e+07  1.85%     -    0s
     0     0 6.2597e+07    0  836 6.3769e+07 6.2597e+07  1.84%     -    0s
     0     2 6.2597e+07    0  834 6.3769e+07 6.2597e+07  1.84%     -    0s
H   33    22                    6.354429e+07 6.3472e+07  0.11%   173    1s
H   37    22                    6.353394e+07 6.3472e+07  0.10%   165    1s

Cutting planes:
  Gomory: 1
  Implied bound: 214
  MIR: 43
  Relax-and-lift: 40

Explored 50 nodes (16843 simplex iterations) in 1.07 seconds (1.32 work units)
Thread count was 8 (of 8 available processors)

Solution count 6: 6.35339e+07 6.35443e+07 6.37686e+07 ... 6.54217e+07

Optimal solution found (tolerance 1.00e-04)
Best objective 6.353394468700e+07, best bound 6.353394115957e+07, gap 0.0000%
